SYSTEM = acetone on Pt(111)
ENCUT = 450
GGA = PE
NELM = 200

# scf
PREC = Accurate
EDIFF = 1e-5
ALGO = Fast
LREAL = False
ISMEAR = 1
SIGMA = 0.02
LASPH = True



# geometry optimization
EDIFFGG = -0.03
IBRION = 2
ISIF = 2 # to check
NSW = 200
ISPIN = 1
LORBIT = 11

